LibMLKEM/why3-cvc5/mlkem.adb_940_36_loop_invariant_preserv_1.smt2
;; produced by cvc5.drv ;;
(set-logic ALL)
(set-info :smt-lib-version 2.6)
;;; generated by SMT-LIB2 driver
;;; SMT-LIB2 driver: bit-vectors, common part
;;; SMT-LIB2: integer arithmetic
;; "pow2"
(declare-fun pow2 (Int) Int)

(declare-const two_power_size_minus_one Int)

;; "two_power_size_minus_one_val"
(assert (= two_power_size_minus_one (pow2 (- 8 1))))

;; "min"
(define-fun min ((x Int) (y Int)) Int
  (ite (<= x y) x y))

;; "max"
(define-fun max ((x Int) (y Int)) Int
  (ite (<= x y) y x))

;; "Min_r"
(assert (forall ((x Int) (y Int)) (=> (<= y x) (= (min x y) y))))

;; "Max_l"
(assert (forall ((x Int) (y Int)) (=> (<= y x) (= (max x y) x))))

;; "Min_comm"
(assert (forall ((x Int) (y Int)) (= (min x y) (min y x))))

;; "Max_comm"
(assert (forall ((x Int) (y Int)) (= (max x y) (max y x))))

;; "Min_assoc"
(assert
  (forall ((x Int) (y Int) (z Int)) (= (min (min x y) z) (min x (min y z)))))

;; "Max_assoc"
(assert
  (forall ((x Int) (y Int) (z Int)) (= (max (max x y) z) (max x (max y z)))))

;; "lsl"
(declare-fun lsl ((_ BitVec 16)
  Int) (_ BitVec 16))

(declare-const two_power_size_minus_one1 Int)

;; "two_power_size_minus_one_val"
(assert (= two_power_size_minus_one1 (pow2 (- 16 1))))

;; "lsl_bv_is_lsl"
(assert
  (forall ((x (_ BitVec 16)) (n (_ BitVec 16)))
    (= (bvshl x n) (lsl x (bv2nat n)))))

(declare-sort byte 0)

;; "to_rep"
(declare-fun to_rep (byte) (_ BitVec 8))

;; "of_rep"
(declare-fun of_rep ((_ BitVec 8)) byte)

;; "inversion_axiom"
(assert
  (forall ((x byte)) (! (= (of_rep (to_rep x)) x) :pattern ((to_rep x)) )))

;; "range_axiom"
(assert true)

;; "coerce_axiom"
(assert
  (forall ((x (_ BitVec 8)))
    (! (= (to_rep (of_rep x)) x) :pattern ((to_rep (of_rep x))) )))

(declare-sort map1 0)

;; "has_bounds"
(declare-fun has_bounds (map1
  Int
  Int) Bool)

(declare-const b map1)

(declare-sort u8_bit 0)

;; "in_range"
(define-fun in_range ((x (_ BitVec 8))) Bool
  (and (bvule #x00 x) (bvule x #x01)))

;; "to_rep"
(declare-fun to_rep1 (u8_bit) (_ BitVec 8))

;; "of_rep"
(declare-fun of_rep1 ((_ BitVec 8)) u8_bit)

;; "inversion_axiom"
(assert
  (forall ((x u8_bit))
    (! (= (of_rep1 (to_rep1 x)) x) :pattern ((to_rep1 x)) )))

;; "range_axiom"
(assert
  (forall ((x u8_bit)) (! (in_range (to_rep1 x)) :pattern ((to_rep1 x)) )))

;; "coerce_axiom"
(assert
  (forall ((x (_ BitVec 8)))
    (! (=> (in_range x) (= (to_rep1 (of_rep1 x)) x)) :pattern ((to_rep1
                                                                 (of_rep1 x))) )))

(declare-sort map2 0)

;; "has_bounds"
(declare-fun has_bounds1 (map2
  Int
  Int) Bool)

;; "get"
(declare-fun get (map2
  Int) u8_bit)

;; "bytestobits"
(declare-fun bytestobits (map1) map2)

;; "bytestobits__function_guard"
(declare-fun bytestobits__function_guard (map2
  map1) Bool)

(declare-const bits map2)

(declare-sort udv 0)

;; "in_range"
(define-fun in_range1 ((x (_ BitVec 8))) Bool
  (and (bvule #x00 x) (bvule x #x0F)))

;; "to_rep"
(declare-fun to_rep2 (udv) (_ BitVec 8))

;; "of_rep"
(declare-fun of_rep2 ((_ BitVec 8)) udv)

;; "inversion_axiom"
(assert
  (forall ((x udv)) (! (= (of_rep2 (to_rep2 x)) x) :pattern ((to_rep2 x)) )))

;; "range_axiom"
(assert
  (forall ((x udv)) (! (in_range1 (to_rep2 x)) :pattern ((to_rep2 x)) )))

;; "coerce_axiom"
(assert
  (forall ((x (_ BitVec 8)))
    (! (let ((y (bvurem x #x10)))
         (=> (in_range1 y) (= (to_rep2 (of_rep2 x)) y))) :pattern ((to_rep2
                                                                    (of_rep2
                                                                    x))) )))

(declare-sort map3 0)

;; "has_bounds"
(declare-fun has_bounds2 (map3
  Int
  Int) Bool)

;; "get"
(declare-fun get1 (map3
  Int) udv)

;; "bytestobits__post_axiom"
(assert
  (forall ((param__b map1))
    (! (=>
         (has_bounds param__b 0 127)
         (let ((result (bytestobits param__b)))
           (=>
             (bytestobits__function_guard result param__b)
             (has_bounds1 result 0 1023)))) :pattern ((bytestobits param__b)) )))

;; Goal "def'vc"
;; File "mlkem.adb", line 924, characters 0-0
(assert
  (not
  (forall ((f map3))
    (=>
      (has_bounds b 0 127)
      (let ((o b))
        (let ((mlkem__bytedecodedv__bits__assume (bytestobits o)))
          (=>
            (and
              (bytestobits__function_guard
                mlkem__bytedecodedv__bits__assume
                o)
              (has_bounds1 mlkem__bytedecodedv__bits__assume 0 1023))
            (=>
              (= mlkem__bytedecodedv__bits__assume bits)
              (=>
                (has_bounds1 bits 0 1023)
                (=>
                  (has_bounds2 f 0 255)
                  (forall ((i Int))
                    (=>
                      (= i 0)
                      (=>
                        (= (and (ite (<= 0 i) true false) (ite (<= i 255)
                                                            true
                                                            false)) true)
                        (forall ((f1 map3) (i1 Int))
                          (=>
                            (= (and (ite (and
                                           (has_bounds2 f1 0 255)
                                           (forall ((temp___4559 Int))
                                             (=>
                                               (and
                                                 (<= 0 temp___4559)
                                                 (<= temp___4559 255))
                                               (=>
                                                 (or
                                                   (< 255 temp___4559)
                                                   (or
                                                     (< temp___4559 0)
                                                     (<= i1 temp___4559)))
                                                 (= (get1 f1 temp___4559) 
                                                 (get1
                                                   f
                                                   temp___4559))))))
                                      true
                                      false) (ite (and (<= 0 i1) (<= i1 255))
                                               true
                                               false)) true)
                            (forall ((t (_ BitVec 16)))
                              (=>
                                (= t #x0000)
                                (forall ((bit Int))
                                  (=>
                                    (= bit 0)
                                    (=>
                                      (= (and (ite (<= 0 bit) true false) 
                                      (ite (<= bit 3)
                                        true
                                        false)) true)
                                      (forall ((o1 (_ BitVec 16)))
                                        (=>
                                          (ite (< bit 65536)
                                            (= o1 (bvshl #x0001 ((_ int2bv 16) bit)))
                                            (= o1 #x0000))
                                          (forall ((o2 (_ BitVec 8)))
                                            (=>
                                              (= (to_rep1
                                                   (get
                                                     bits
                                                     (+ (* i1 4) bit))) o2)
                                              (forall ((t1 (_ BitVec 16)))
                                                (=>
                                                  (= t1 (bvadd t (bvmul ((_ zero_extend 8) o2) o1)))
                                                  (forall ((t2 (_ BitVec 16)) (bit1 Int))
                                                    (=>
                                                      (bvule t2 (bvsub 
                                                      (let ((temp___4554 (+ bit1 1)))
                                                        (ite (< temp___4554 65536)
                                                          (bvshl #x0001 ((_ int2bv 16) temp___4554))
                                                          #x0000)) #x0001))
                                                      (=>
                                                        (= (and (ite true
                                                                  true
                                                                  false) 
                                                        (ite (and
                                                               (<= 0 bit1)
                                                               (<= bit1 3))
                                                          true
                                                          false)) true)
                                                        (=>
                                                          (not (= bit1 3))
                                                          (forall ((bit2 Int))
                                                            (=>
                                                              (= bit2 (+ bit1 1))
                                                              (forall 
                                                                ((o3 (_ BitVec 16)))
                                                                (=>
                                                                  (ite (< bit2 65536)
                                                                    (= o3 (bvshl #x0001 ((_ int2bv 16) bit2)))
                                                                    (= o3 #x0000))
                                                                  (forall 
                                                                    ((o4 (_ BitVec 8)))
                                                                    (=>
                                                                    (= 
                                                                    (to_rep1
                                                                    (get
                                                                    bits
                                                                    (+ (* i1 4) bit2))) o4)
                                                                    (forall 
                                                                    ((t3 (_ BitVec 16)))
                                                                    (=>
                                                                    (= t3 (bvadd t2 (bvmul ((_ zero_extend 8) o4) o3)))
                                                                    (bvule t3 (bvsub 
                                                                    (let ((temp___4554 (+ bit2 1)))
                                                                    (ite (< temp___4554 65536)
                                                                    (bvshl #x0001 ((_ int2bv 16) temp___4554))
                                                                    #x0000)) #x0001))))))))))))))))))))))))))))))))))))))))

(check-sat)
